tsp_instances/TSP50/instance69.tsp
NODE_COORD_SECTION
0 139 23
1 33 13
2 63 115
3 21 155
4 133 132
5 110 79
6 77 152
7 132 33
8 42 112
9 83 14
10 136 121
11 105 103
12 132 96
13 134 169
14 158 52
15 26 103
16 154 36
17 164 10
18 36 150
19 187 49
20 124 157
21 159 130
22 126 22
23 118 179
24 83 187
25 30 44
26 68 49
27 127 24
28 200 73
29 35 164
30 116 3
31 158 59
32 116 100
33 133 91
34 30 100
35 89 43
36 142 83
37 63 189
38 78 50
39 178 64
40 184 163
41 74 114
42 159 194
43 7 24
44 179 124
45 142 127
46 51 153
47 70 190
48 70 133
49 182 44
