tsp_instances/TSP50/instance69.opt.tour
TOUR_SECTION
1
8
28
23
31
10
36
39
27
2
44
26
35
16
9
3
42
49
7
47
19
4
30
38
48
25
24
21
14
43
41
45
22
46
5
11
33
12
6
13
34
37
32
15
40
29
20
50
17
18
-1